param m := 7 ;
param n := 3 ;
param w := 1 ;

param s :=
1 100
2 150
3 200;

param p :=
1 100
2 120
3 135
4 90
5 125
6 110
7 105;

param c :=
1 1 0
1 2 3
1 3 10
2 1 5
2 2 10
2 3 10
3 1 5
3 2 3
3 3 9
4 1 4
4 2 6
4 3 3
5 1 8
5 2 2
5 3 8
6 1 5
6 2 2
6 3 10
7 1 3
7 2 2
7 3 7;

